50 8
972 126
91 304
487 460
293 346
657 722
274 718
687 267
246 713
877 180
520 451
734 234
363 656
272 610
278 739
512 631
280 596
750 154
151 316
322 286
274 202
436 448
644 659
265 630
115 249
231 187
430 737
403 448
285 734
318 288
83 327
161 840
659 169
160 315
93 953
375 714
659 756
223 250
408 272
674 768
173 338
660 273
253 833
853 242
909 205
959 264
346 607
852 310
253 648
294 362
159 143
